c INSTANCE 1
p edge 6 10
e 1 2
e 1 5
e 1 6
e 2 5
e 2 6
e 3 4
e 3 5
e 4 5
e 4 6
e 5 6

c INSTANCE 2
p edge 6 8
e 1 3
e 1 6
e 2 4
e 2 5
e 3 4
e 3 5
e 3 6
e 4 5

c INSTANCE 3
p edge 6 8
e 1 2
e 1 3
e 1 5
e 2 4
e 2 6
e 3 4
e 3 6
e 4 6

c INSTANCE 4
p edge 4 4
e 1 2
e 2 3
e 3 4
e 4 1

c INSTANCE 5
p edge 5 10
e 1 2
e 1 3
e 1 4
e 1 5
e 2 3
e 2 4
e 2 5
e 3 4
e 3 5
e 4 5

c INSTANCE 6
p edge 7 12
e 1 2
e 2 3
e 3 4
e 4 5
e 5 6
e 6 7
e 7 1
e 1 3
e 2 5
e 3 6
e 4 7
e 5 1

c INSTANCE 7 
p edge 8 16
e 1 2
e 2 3
e 3 4
e 4 5
e 5 6
e 6 7
e 7 8
e 8 1
e 1 3
e 2 4
e 3 5
e 4 6
e 5 7
e 6 8
e 7 1
e 8 2

c INSTANCE 8
p edge 4 3
e 1 2
e 1 3
e 1 4

c INSTANCE 9
p edge 6 9
e 1 2
e 2 3
e 3 4
e 4 5
e 5 6
e 6 1
e 1 4
e 2 5
e 3 6

c INSTANCE 10
p edge 10 15
e 1 2
e 2 3
e 3 4
e 4 5
e 5 6
e 6 7
e 7 8
e 8 9
e 9 10
e 10 1
e 1 5
e 2 6
e 3 7
e 4 8
e 9 3

